18 17

10 15 5 11 2 12 1 5
16 12 11 11 14 10 8 6
15 5 12 7 8 3 2 15 4 2 5 9
5 4 16 2 15 13 4 9
9 13 4 9 5 13 17 2
9 8 15 14 3 4 8 6 10 3 11 13
1 3 15 9 12 8 4 9
15 2 5 3 2 8 12 9 13 3 17 2
11 2 5 10 15 11 10 13 17 10 16 13
13 11 3 12 7 5 10 4 2 15
16 15 1 4 14 8 13 6 3 15 4 12
15 12 7 13 11 2 2 13 3 8 14 9
5 9 3 10 17 13 6 15
9 6 3 14 8 14 2 6 16 7
4 6 12 15 7 3 8 14 11 13 14 13
7 4 16 10 8 8 5 14 13 13
13 11 1 13 17 7 9 11 11 4
11 8 9 9 2 5 5 8 16 3
